\* Problem: Unknown *\

Maximize
 obj: + xp_0_0 + xp_0_1 + xp_1_0 + xp_1_1 + xp_2_0 + xp_2_1 + xp_3_0
 + xp_3_1 + xp_4_0 + xp_5_0 + xp_6_0 + xp_7_0 + xp_8_0 + xp_9_0 + xp_9_1
 + xp_10_0 + xp_11_0 + xp_11_1 + xp_12_0 + xp_12_1 + xp_13_0 + xp_13_1
 + xp_13_2 + xp_14_0 + xp_14_1 + xp_15_0 + xp_16_0 + xp_17_0 + xp_17_1
 + xp_18_0 + xp_18_1 + xp_18_2 + xp_18_3 + xp_18_4 + xp_19_0 + xp_19_1
 + xp_20_0 + xp_21_0 + xp_22_0 + xp_22_1 + xp_23_0 + xp_24_0 + xp_24_1
 + xp_24_2 + xp_24_3 + xp_25_0 + xp_26_0 + xp_27_0 + xp_28_0 + xp_28_1
 + xp_29_0 + xp_30_0 + xp_30_1 + xp_31_0 + xp_32_0 + xp_32_1 + xp_32_2
 + xp_32_3 + xp_33_0 + xp_34_0 + xp_34_1 + xp_35_0 + xp_36_0 + xp_37_0
 + xp_38_0 + xp_38_1 + xp_38_2 + xp_39_0 + xp_40_0 + xp_40_1 + xp_40_2
 + xp_41_0 + xp_42_0 + xp_42_1 + xp_42_2 + xp_43_0 + xp_44_0 + xp_44_1
 + xp_45_0 + xp_45_1 + xp_46_0 + xp_47_0 + xp_48_0 + xp_48_1 + xp_48_2
 + xp_49_0 + xp_50_0 + xp_50_1 + xp_51_0 + xp_52_0 + xp_53_0 + xp_53_1
 + xp_54_0 + xp_55_0 + xp_56_0 + xp_57_0 + xp_57_1 + xp_58_0 + xp_58_1
 + xp_58_2 + xp_58_3 + xp_59_0 + xp_60_0 + xp_60_1 + xp_61_0 + xp_61_1
 + xp_62_0 + xp_63_0 + xp_63_1 + xp_64_0 + xp_65_0 + xp_65_1 + xp_66_0
 + xp_67_0 + xp_67_1 + xp_68_0 + xp_68_1 + xp_69_0 + xp_70_0 + xp_71_0
 + xp_72_0 + xp_73_0 + xp_74_0 + xp_74_1 + xp_75_0 + xp_75_1 + xp_76_0
 + xp_77_0 + xp_77_1 + xp_77_2 + xp_78_0 + xp_78_1 + xp_78_2 + xp_78_3
 + xp_78_4 + xp_79_0 + xp_79_1 + xp_80_0 + xp_80_1 + xp_81_0 + xp_81_1
 + xp_82_0 + xp_82_1 + xp_83_0 + xp_84_0 + xp_85_0 + xp_85_1 + xp_85_2
 + xp_86_0 + xp_86_1 + xp_87_0 + xp_88_0 + xp_88_1 + xp_89_0 + xp_89_1
 + xp_90_0 + xp_90_1 + xp_90_2 + xp_91_0 + xp_91_1 + xp_91_2 + xp_92_0
 + xp_92_1 + xp_92_2 + xp_93_0 + xp_94_0 + xp_94_1 + xp_94_2 + xp_95_0
 + xp_95_1 + xp_95_2 + xp_96_0 + xp_96_1 + xp_97_0 + xp_98_0 + xp_98_1
 + xp_98_2 + xp_99_0 + xp_99_1 + xp_99_2 + xp_100_0 + xp_101_0
 + xp_101_1 + xp_102_0 + xp_103_0 + xp_104_0 + xp_105_0 + xp_105_1
 + xp_106_0 + xp_106_1 + xp_107_0 + xp_108_0 + xp_108_1 + xp_108_2
 + xp_109_0 + xp_109_1 + xp_110_0 + xp_111_0 + xp_111_1 + xp_112_0
 + xp_112_1 + xp_112_2 + xp_113_0 + xp_114_0 + xp_115_0 + xp_115_1
 + xp_116_0 + xp_116_1 + xp_117_0 + xp_118_0 + xp_119_0 + xp_119_1
 + xp_120_0 + xp_120_1 + xp_120_2 + xp_121_0 + xp_122_0 + xp_123_0
 + xp_123_1 + xp_124_0 + xp_124_1 + xp_125_0 + xp_125_1 + xp_126_0
 + xp_126_1 + xp_126_2 + xp_126_3 + xp_126_4 + xp_127_0 + xp_127_1
 + xp_128_0 + xp_128_1 + xp_128_2 + xp_129_0 + xp_129_1 + xp_130_0
 + xp_131_0 + xp_131_1 + xp_131_2

Subject To
 r_1: + xp_128_2 + xp_128_1 + xp_123_1 + xp_122_0 + xp_121_0 + xp_108_2
 + xp_107_0 + xp_78_3 + xp_67_1 + xp_57_1 + xp_40_2 + xp_40_1 + xp_25_0
 + xp_22_1 + xp_18_4 + xp_18_3 + xp_18_2 + xp_18_1 + xp_16_0 + xp_13_2
 + xp_13_1 + xp_4_0 <= 40000
 r_2: + xp_131_2 + xp_131_1 + xp_127_1 + xp_126_1 + xp_120_1 + xp_120_0
 + xp_94_2 + xp_94_1 + xp_93_0 + xp_90_1 + xp_89_1 + xp_85_2 + xp_85_1
 + xp_85_0 + xp_77_2 + xp_77_1 + xp_75_1 + xp_75_0 + xp_74_1 + xp_71_0
 + xp_66_0 + xp_65_1 + xp_65_0 + xp_61_1 + xp_55_0 + xp_52_0 + xp_48_2
 + xp_48_1 + xp_48_0 + xp_42_2 + xp_42_1 + xp_38_2 + xp_38_1 + xp_32_2
 + xp_32_0 + xp_28_1 + xp_28_0 + xp_24_3 + xp_24_2 + xp_24_0 + xp_19_1
 + xp_19_0 + xp_12_1 + xp_1_1 <= 38882.8039430449
 r_3: + xp_126_3 + xp_114_0 + xp_105_1 + xp_95_0 + xp_91_2 + xp_76_0
 + xp_58_2 + xp_48_2 + xp_34_0 + xp_32_3 <= 40000
 r_4: + xp_117_0 + xp_112_2 + xp_95_2 + xp_95_1 + xp_91_1 + xp_91_0
 + xp_88_1 + xp_84_0 + xp_79_1 + xp_79_0 + xp_78_4 + xp_46_0 + xp_44_1
 + xp_43_0 + xp_40_2 + xp_40_1 + xp_40_0 + xp_34_1 + xp_18_3 <= 40000
 r_5: + xp_130_0 + xp_112_2 + xp_99_0 + xp_88_1 + xp_78_4 + xp_44_1
 + xp_18_3 + xp_7_0 + xp_2_0 <= 40000
 r_6: + xp_126_3 + xp_126_2 + xp_119_0 + xp_114_0 + xp_95_0 + xp_92_1
 + xp_91_2 + xp_83_0 + xp_82_1 + xp_81_0 + xp_70_0 + xp_68_1 + xp_58_2
 + xp_58_1 + xp_53_0 + xp_48_2 + xp_48_1 + xp_45_0 + xp_34_0 + xp_32_3
 + xp_32_2 + xp_32_1 + xp_30_1 + xp_18_1 <= 40000
 r_7: + xp_119_1 + xp_112_1 + xp_111_1 + xp_104_0 + xp_88_0 + xp_82_0
 + xp_81_1 + xp_78_2 + xp_53_1 + xp_50_1 + xp_45_1 + xp_44_0 + xp_27_0
 + xp_18_4 + xp_18_2 + xp_18_0 + xp_3_1 <= 40000
 r_8: + xp_131_2 + xp_131_1 + xp_127_1 + xp_126_1 + xp_120_1 + xp_120_0
 + xp_118_0 + xp_103_0 + xp_94_2 + xp_94_1 + xp_90_1 + xp_89_1 + xp_77_2
 + xp_77_1 + xp_74_1 + xp_71_0 + xp_61_1 + xp_55_0 + xp_42_2 + xp_42_1
 + xp_38_2 + xp_38_1 + xp_32_2 + xp_32_0 + xp_24_3 + xp_24_2 + xp_24_0
 + xp_12_1 + xp_1_1 <= 40000
 r_9: + xp_131_0 + xp_127_0 + xp_123_1 + xp_122_0 + xp_120_2 + xp_108_2
 + xp_78_3 + xp_77_0 + xp_67_1 + xp_57_1 + xp_42_0 + xp_33_0 + xp_32_3
 + xp_32_1 + xp_24_1 <= 40000
 r_10: + xp_112_2 + xp_112_1 + xp_111_1 + xp_106_0 + xp_99_0 + xp_98_0
 + xp_88_1 + xp_88_0 + xp_85_0 + xp_78_4 + xp_78_2 + xp_50_1 + xp_26_0
 + xp_24_0 + xp_8_0 + xp_7_0 + xp_3_1 + xp_2_0 <= 40000
 r_11: + xp_119_0 + xp_112_0 + xp_111_0 + xp_95_0 + xp_91_2 + xp_82_1
 + xp_81_0 + xp_78_3 + xp_78_1 + xp_78_0 + xp_59_0 + xp_53_0 + xp_50_0
 + xp_49_0 + xp_45_0 + xp_34_0 + xp_18_1 + xp_4_0 + xp_3_0 <= 40000
 r_12: + xp_129_1 + xp_128_1 + xp_128_0 + xp_123_0 + xp_117_0 + xp_112_2
 + xp_112_1 + xp_111_1 + xp_108_1 + xp_101_0 + xp_95_1 + xp_91_1
 + xp_82_0 + xp_81_1 + xp_80_1 + xp_79_1 + xp_78_4 + xp_78_2 + xp_78_0
 + xp_73_0 + xp_63_1 + xp_60_1 + xp_50_1 + xp_46_0 + xp_44_1 + xp_44_0
 + xp_40_1 + xp_40_0 + xp_18_2 + xp_18_0 + xp_17_1 + xp_15_0 + xp_14_1
 + xp_13_1 + xp_13_0 + xp_9_0 <= 39276.5957446809
 r_13: + xp_129_0 + xp_128_2 + xp_126_4 + xp_123_1 + xp_120_2 + xp_120_1
 + xp_119_1 + xp_109_1 + xp_101_1 + xp_100_0 + xp_96_1 + xp_95_2
 + xp_92_2 + xp_91_0 + xp_90_0 + xp_80_0 + xp_79_0 + xp_75_1 + xp_68_0
 + xp_63_0 + xp_60_0 + xp_58_3 + xp_53_1 + xp_45_1 + xp_40_2 + xp_34_1
 + xp_31_0 + xp_30_0 + xp_18_4 + xp_18_3 + xp_17_0 + xp_13_2 + xp_9_1
 <= 39276.5957446809
 r_14: + xp_131_2 + xp_131_1 + xp_131_0 + xp_126_3 + xp_126_2 + xp_125_1
 + xp_125_0 + xp_124_1 + xp_124_0 + xp_115_1 + xp_115_0 + xp_106_1
 + xp_99_2 + xp_99_1 + xp_98_2 + xp_98_1 + xp_94_2 + xp_94_1 + xp_94_0
 + xp_92_1 + xp_86_1 + xp_86_0 + xp_85_2 + xp_85_1 + xp_77_2 + xp_77_1
 + xp_77_0 + xp_68_1 + xp_65_1 + xp_65_0 + xp_58_2 + xp_58_1 + xp_56_0
 + xp_51_0 + xp_48_2 + xp_48_1 + xp_41_0 + xp_38_2 + xp_38_1 + xp_38_0
 + xp_35_0 + xp_32_3 + xp_32_2 + xp_32_1 + xp_30_1 + xp_24_3 + xp_24_2
 + xp_24_1 + xp_20_0 + xp_19_1 + xp_19_0 + xp_12_1 + xp_12_0 + xp_2_1
 + xp_0_1 + xp_0_0 <= 39276.5957446809
 r_15: + xp_131_2 + xp_131_0 + xp_126_4 + xp_126_3 + xp_126_2 + xp_125_0
 + xp_124_0 + xp_120_2 + xp_120_1 + xp_116_0 + xp_115_0 + xp_109_1
 + xp_99_1 + xp_98_1 + xp_96_1 + xp_94_2 + xp_94_0 + xp_92_2 + xp_92_1
 + xp_90_0 + xp_89_1 + xp_89_0 + xp_86_0 + xp_85_1 + xp_77_2 + xp_77_0
 + xp_75_1 + xp_68_1 + xp_68_0 + xp_65_0 + xp_58_3 + xp_58_2 + xp_58_1
 + xp_51_0 + xp_48_2 + xp_48_1 + xp_42_2 + xp_42_0 + xp_38_1 + xp_38_0
 + xp_36_0 + xp_32_3 + xp_32_2 + xp_32_1 + xp_28_1 + xp_24_2 + xp_24_1
 + xp_19_1 + xp_12_0 + xp_11_0 + xp_0_0 <= 39276.5957446809
 r_16: + xp_128_0 + xp_123_0 + xp_108_1 + xp_108_0 + xp_78_4 + xp_78_2
 + xp_78_1 + xp_78_0 + xp_73_0 + xp_67_0 + xp_57_0 + xp_46_0 + xp_44_1
 + xp_44_0 + xp_40_0 + xp_22_0 + xp_18_0 + xp_13_0 + xp_6_0 <= 40000
 r_17: + xp_129_1 + xp_128_1 + xp_126_0 + xp_124_1 + xp_112_2 + xp_112_1
 + xp_111_1 + xp_109_0 + xp_97_0 + xp_95_1 + xp_91_1 + xp_90_2 + xp_81_1
 + xp_80_1 + xp_79_1 + xp_63_1 + xp_62_0 + xp_61_0 + xp_60_1 + xp_47_0
 + xp_40_1 + xp_22_1 + xp_18_2 + xp_17_1 + xp_13_1 + xp_9_0 + xp_1_0
 + xp_0_1 <= 38882.8039430449
 r_18: + xp_126_4 + xp_126_1 + xp_126_0 + xp_106_0 + xp_99_0 + xp_98_0
 + xp_92_2 + xp_92_0 + xp_85_0 + xp_68_0 + xp_58_3 + xp_58_0 + xp_48_0
 + xp_32_0 + xp_30_0 + xp_26_0 + xp_24_0 + xp_5_0 + xp_2_0 <= 40000
 r_19: + xp_131_1 + xp_125_1 + xp_124_1 + xp_116_1 + xp_115_1 + xp_110_0
 + xp_108_1 + xp_106_1 + xp_99_2 + xp_98_2 + xp_94_1 + xp_86_1 + xp_85_2
 + xp_78_0 + xp_77_1 + xp_65_1 + xp_56_0 + xp_42_1 + xp_38_2 + xp_28_0
 + xp_24_3 + xp_19_0 + xp_14_1 + xp_12_1 + xp_11_1 + xp_3_0 + xp_2_1
 + xp_0_1 <= 39276.5957446809
 r_20: + xp_129_0 + xp_128_2 + xp_123_1 + xp_119_1 + xp_119_0 + xp_112_0
 + xp_111_0 + xp_108_2 + xp_108_0 + xp_107_0 + xp_101_1 + xp_95_2
 + xp_95_0 + xp_91_2 + xp_91_0 + xp_82_1 + xp_81_0 + xp_80_0 + xp_79_0
 + xp_78_3 + xp_78_1 + xp_69_0 + xp_64_0 + xp_63_0 + xp_60_0 + xp_50_0
 + xp_49_0 + xp_45_1 + xp_45_0 + xp_40_2 + xp_18_4 + xp_18_3 + xp_18_1
 + xp_17_0 + xp_14_0 + xp_13_2 + xp_10_0 + xp_9_1 + xp_4_0
 <= 38882.8039430449
 r_21: + xp_126_3 + xp_113_0 + xp_105_1 + xp_99_2 + xp_99_1 + xp_86_1
 + xp_86_0 + xp_77_2 + xp_77_1 + xp_77_0 + xp_65_1 + xp_65_0 + xp_58_2
 + xp_48_2 + xp_38_2 + xp_38_1 + xp_38_0 + xp_32_3 + xp_20_0 + xp_2_1
 + xp_0_1 + xp_0_0 <= 40000
 r_22: + xp_126_2 + xp_124_1 + xp_124_0 + xp_106_1 + xp_105_0 + xp_98_2
 + xp_98_1 + xp_94_2 + xp_94_1 + xp_94_0 + xp_92_1 + xp_85_2 + xp_85_1
 + xp_83_0 + xp_68_1 + xp_58_1 + xp_48_1 + xp_41_0 + xp_32_2 + xp_32_1
 + xp_30_1 + xp_24_3 + xp_24_2 + xp_24_1 <= 40000
 r_23: + xp_128_2 + xp_128_1 + xp_128_0 + xp_119_1 + xp_117_0 + xp_112_2
 + xp_112_1 + xp_111_1 + xp_104_0 + xp_100_0 + xp_95_2 + xp_95_1
 + xp_91_1 + xp_91_0 + xp_84_0 + xp_82_0 + xp_81_1 + xp_80_1 + xp_80_0
 + xp_79_1 + xp_79_0 + xp_78_4 + xp_78_2 + xp_73_0 + xp_60_1 + xp_60_0
 + xp_53_1 + xp_50_1 + xp_46_0 + xp_45_1 + xp_44_1 + xp_44_0 + xp_40_2
 + xp_40_1 + xp_40_0 + xp_34_1 + xp_21_0 + xp_18_4 + xp_18_3 + xp_18_2
 + xp_18_0 + xp_15_0 + xp_9_1 + xp_9_0 + xp_3_1 <= 39276.5957446809
 r_24: + xp_128_0 + xp_126_1 + xp_103_0 + xp_94_2 + xp_94_1 + xp_90_1
 + xp_89_1 + xp_74_1 + xp_61_1 + xp_40_0 + xp_39_0 + xp_38_2 + xp_38_1
 + xp_22_0 + xp_18_0 + xp_13_0 + xp_12_1 + xp_1_1 <= 40000
 r_25: + xp_131_0 + xp_127_0 + xp_126_4 + xp_126_3 + xp_126_2 + xp_126_0
 + xp_120_2 + xp_94_0 + xp_90_2 + xp_90_0 + xp_89_0 + xp_77_0 + xp_74_0
 + xp_61_0 + xp_42_0 + xp_38_0 + xp_32_3 + xp_32_1 + xp_24_1 + xp_12_0
 + xp_1_0 <= 40000
 r_26: + xp_128_2 + xp_128_1 + xp_123_1 + xp_121_0 + xp_112_2 + xp_112_1
 + xp_112_0 + xp_108_2 + xp_107_0 + xp_81_1 + xp_81_0 + xp_79_1
 + xp_79_0 + xp_78_3 + xp_67_1 + xp_64_0 + xp_60_1 + xp_60_0 + xp_57_1
 + xp_47_0 + xp_40_2 + xp_40_1 + xp_37_0 + xp_29_0 + xp_25_0 + xp_22_1
 + xp_18_4 + xp_18_3 + xp_18_2 + xp_18_1 + xp_17_1 + xp_17_0 + xp_13_2
 + xp_13_1 + xp_4_0 <= 38882.8039430449
 r_27: + xp_131_2 + xp_127_1 + xp_125_0 + xp_120_1 + xp_116_0 + xp_115_0
 + xp_108_0 + xp_101_1 + xp_99_1 + xp_98_1 + xp_96_1 + xp_94_2 + xp_92_2
 + xp_92_1 + xp_89_1 + xp_86_0 + xp_85_1 + xp_82_1 + xp_78_1 + xp_77_2
 + xp_75_1 + xp_74_1 + xp_72_0 + xp_67_0 + xp_65_0 + xp_58_3 + xp_58_2
 + xp_58_1 + xp_57_0 + xp_52_0 + xp_50_0 + xp_48_2 + xp_48_1 + xp_42_2
 + xp_38_1 + xp_32_2 + xp_28_1 + xp_24_2 + xp_23_0 + xp_19_1 + xp_14_0
 + xp_11_0 <= 38882.8039430449
 r_28: + xp_131_1 + xp_126_1 + xp_126_0 + xp_125_1 + xp_124_1 + xp_120_0
 + xp_116_1 + xp_115_1 + xp_109_0 + xp_99_2 + xp_99_0 + xp_98_2
 + xp_98_0 + xp_96_0 + xp_94_1 + xp_92_0 + xp_90_2 + xp_90_1 + xp_86_1
 + xp_85_2 + xp_85_0 + xp_77_1 + xp_75_0 + xp_65_1 + xp_58_0 + xp_54_0
 + xp_48_0 + xp_42_1 + xp_38_2 + xp_32_0 + xp_28_0 + xp_26_0 + xp_24_3
 + xp_24_0 + xp_19_0 + xp_12_1 + xp_11_1 + xp_0_1 <= 38882.8039430449
 r_29: + xp_129_1 + xp_129_0 + xp_95_2 + xp_95_1 + xp_95_0 + xp_93_0
 + xp_87_0 + xp_71_0 + xp_62_0 + xp_49_0 + xp_45_1 + xp_45_0 + xp_10_0
 + xp_9_1 + xp_9_0 + xp_1_1 + xp_1_0 <= 38882.8039430449
 r_30: + xp_125_1 + xp_125_0 + xp_121_0 + xp_102_0 + xp_99_2 + xp_99_1
 + xp_99_0 + xp_96_1 + xp_96_0 + xp_92_2 + xp_92_1 + xp_92_0 + xp_57_1
 + xp_57_0 + xp_37_0 + xp_26_0 + xp_23_0 + xp_11_1 + xp_11_0
 <= 38882.8039430449

Bounds
 0 <= xp_0_0 <= 200.021256702877
 0 <= xp_0_1 <= 36.3675012187049
 0 <= xp_1_0 <= 112.556400419902
 0 <= xp_1_1 <= 70.347750262439
 0 <= xp_2_0 <= 26.5899258212179
 0 <= xp_2_1 <= 88.6330860707264
 0 <= xp_3_0 <= 112.393864101607
 0 <= xp_3_1 <= 70.2461650635041
 0 <= xp_4_0 <= 790.317609933915
 0 <= xp_5_0 <= 1085.34134468074
 0 <= xp_6_0 <= 1795.16792223856
 0 <= xp_7_0 <= 639.43819321581
 0 <= xp_8_0 <= 1512.49186842228
 0 <= xp_9_0 <= 50.0408689953465
 0 <= xp_9_1 <= 58.3810138279042
 0 <= xp_10_0 <= 54.9372755840101
 0 <= xp_11_0 <= 22.3995363651521
 0 <= xp_11_1 <= 19.1996025987018
 0 <= xp_12_0 <= 1433.70746738829
 0 <= xp_12_1 <= 637.203318839242
 0 <= xp_13_0 <= 116.508064658471
 0 <= xp_13_1 <= 19.4180107764119
 0 <= xp_13_2 <= 116.508064658471
 0 <= xp_14_0 <= 186.444394865224
 0 <= xp_14_1 <= 33.8989808845861
 0 <= xp_15_0 <= 508.037738393478
 0 <= xp_16_0 <= 2645.77126848041
 0 <= xp_17_0 <= 183.137796639892
 0 <= xp_17_1 <= 114.461122899932
 0 <= xp_18_0 <= 138.333644649641
 0 <= xp_18_1 <= 83.0001867897845
 0 <= xp_18_2 <= 27.6667289299282
 0 <= xp_18_3 <= 27.6667289299282
 0 <= xp_18_4 <= 83.0001867897845
 0 <= xp_19_0 <= 407.915366323211
 0 <= xp_19_1 <= 652.664586117138
 0 <= xp_20_0 <= 128.495118132793
 0 <= xp_21_0 <= 275.016529816589
 0 <= xp_22_0 <= 379.827058817703
 0 <= xp_22_1 <= 854.610882339832
 0 <= xp_23_0 <= 52.0979692737788
 0 <= xp_24_0 <= 157.528167988396
 0 <= xp_24_1 <= 105.018778658931
 0 <= xp_24_2 <= 52.5093893294653
 0 <= xp_24_3 <= 26.2546946647326
 0 <= xp_25_0 <= 579.944821459568
 0 <= xp_26_0 <= 15.3850783786951
 0 <= xp_27_0 <= 338.603785089909
 0 <= xp_28_0 <= 257.26451630271
 0 <= xp_28_1 <= 411.623226084336
 0 <= xp_29_0 <= 2453.02859128122
 0 <= xp_30_0 <= 141.355804317955
 0 <= xp_30_1 <= 42.4067412953865
 0 <= xp_31_0 <= 191.025887337189
 0 <= xp_32_0 <= 1735.43074600488
 0 <= xp_32_1 <= 173.543074600488
 0 <= xp_32_2 <= 173.543074600488
 0 <= xp_32_3 <= 173.543074600488
 0 <= xp_33_0 <= 8077.29820957356
 0 <= xp_34_0 <= 39.3845816270723
 0 <= xp_34_1 <= 472.614979524868
 0 <= xp_35_0 <= 261.612362817125
 0 <= xp_36_0 <= 319.653066228597
 0 <= xp_37_0 <= 365.676240606067
 0 <= xp_38_0 <= 283.940789543023
 0 <= xp_38_1 <= 25.8127990493657
 0 <= xp_38_2 <= 25.8127990493657
 0 <= xp_39_0 <= 1576.9375186266
 0 <= xp_40_0 <= 327.332907268078
 0 <= xp_40_1 <= 196.399744360847
 0 <= xp_40_2 <= 327.332907268078
 0 <= xp_41_0 <= 80.0948501002455
 0 <= xp_42_0 <= 210.098508437222
 0 <= xp_42_1 <= 105.049254218611
 0 <= xp_42_2 <= 140.065672291481
 0 <= xp_43_0 <= 493.180903049245
 0 <= xp_44_0 <= 424.280741871629
 0 <= xp_44_1 <= 35.3567284893024
 0 <= xp_45_0 <= 39.3744231071789
 0 <= xp_45_1 <= 3.28120192559824
 0 <= xp_46_0 <= 1609.22637410807
 0 <= xp_47_0 <= 880.977320723393
 0 <= xp_48_0 <= 2240.91869590509
 0 <= xp_48_1 <= 448.183739181018
 0 <= xp_48_2 <= 224.091869590509
 0 <= xp_49_0 <= 88.2826171344009
 0 <= xp_50_0 <= 483.78935140771
 0 <= xp_50_1 <= 302.368344629819
 0 <= xp_51_0 <= 711.213215523285
 0 <= xp_52_0 <= 663.935463938968
 0 <= xp_53_0 <= 117.148051411761
 0 <= xp_53_1 <= 73.2175321323508
 0 <= xp_54_0 <= 3702.12527664507
 0 <= xp_55_0 <= 1187.95255412491
 0 <= xp_56_0 <= 96.0081715134023
 0 <= xp_57_0 <= 174.767176247654
 0 <= xp_57_1 <= 31.7758502268461
 0 <= xp_58_0 <= 3505.50204484656
 0 <= xp_58_1 <= 350.550204484656
 0 <= xp_58_2 <= 350.550204484656
 0 <= xp_58_3 <= 350.550204484656
 0 <= xp_59_0 <= 10669.2547189182
 0 <= xp_60_0 <= 470.390263668193
 0 <= xp_60_1 <= 209.062339408086
 0 <= xp_61_0 <= 1492.77418130901
 0 <= xp_61_1 <= 932.98386331813
 0 <= xp_62_0 <= 131.532515580947
 0 <= xp_63_0 <= 101.635991534397
 0 <= xp_63_1 <= 30.4907974603192
 0 <= xp_64_0 <= 996.728575649799
 0 <= xp_65_0 <= 443.063845154697
 0 <= xp_65_1 <= 80.5570627553995
 0 <= xp_66_0 <= 1683.97276348439
 0 <= xp_67_0 <= 311.96814592917
 0 <= xp_67_1 <= 93.590443778751
 0 <= xp_68_0 <= 681.616367813593
 0 <= xp_68_1 <= 795.219095782525
 0 <= xp_69_0 <= 1722.6665657587
 0 <= xp_70_0 <= 633.165307181578
 0 <= xp_71_0 <= 71.04868813509
 0 <= xp_72_0 <= 600.480269424264
 0 <= xp_73_0 <= 925.217674859555
 0 <= xp_74_0 <= 882.023648272423
 0 <= xp_74_1 <= 73.5019706893686
 0 <= xp_75_0 <= 1496.19252325317
 0 <= xp_75_1 <= 272.035004227849
 0 <= xp_76_0 <= 1726.23220624132
 0 <= xp_77_0 <= 308.829163282081
 0 <= xp_77_1 <= 44.1184518974401
 0 <= xp_77_2 <= 220.5922594872
 0 <= xp_78_0 <= 2158.52802030891
 0 <= xp_78_1 <= 4317.05604061782
 0 <= xp_78_2 <= 12951.1681218535
 0 <= xp_78_3 <= 6475.58406092674
 0 <= xp_78_4 <= 2158.52802030891
 0 <= xp_79_0 <= 657.378139347719
 0 <= xp_79_1 <= 410.861337092324
 0 <= xp_80_0 <= 139.13108846128
 0 <= xp_80_1 <= 86.9569302883
 0 <= xp_81_0 <= 181.116251181087
 0 <= xp_81_1 <= 80.4961116360385
 0 <= xp_82_0 <= 169.545697022398
 0 <= xp_82_1 <= 50.8637091067194
 0 <= xp_83_0 <= 505.264462462554
 0 <= xp_84_0 <= 892.532637102241
 0 <= xp_85_0 <= 126.107865957822
 0 <= xp_85_1 <= 252.215731915644
 0 <= xp_85_2 <= 31.5269664894555
 0 <= xp_86_0 <= 145.490321914607
 0 <= xp_86_1 <= 26.4527858026558
 0 <= xp_87_0 <= 141.701193994334
 0 <= xp_88_0 <= 328.069399960356
 0 <= xp_88_1 <= 98.4208199881069
 0 <= xp_89_0 <= 2056.12506052256
 0 <= xp_89_1 <= 171.343755043546
 0 <= xp_90_0 <= 11721.4640509663
 0 <= xp_90_1 <= 6697.97945769503
 0 <= xp_90_2 <= 3348.98972884752
 0 <= xp_91_0 <= 1049.85763469277
 0 <= xp_91_1 <= 1469.80068856987
 0 <= xp_91_2 <= 209.971526938553
 0 <= xp_92_0 <= 51.6052810589444
 0 <= xp_92_1 <= 5.16052810589444
 0 <= xp_92_2 <= 10.3210562117889
 0 <= xp_93_0 <= 130.87221178787
 0 <= xp_94_0 <= 182.954943281809
 0 <= xp_94_1 <= 36.5909886563618
 0 <= xp_94_2 <= 18.2954943281809
 0 <= xp_95_0 <= 28.4032216222064
 0 <= xp_95_1 <= 28.4032216222064
 0 <= xp_95_2 <= 4.73387027036774
 0 <= xp_96_0 <= 80.1811975193402
 0 <= xp_96_1 <= 35.6360877863734
 0 <= xp_97_0 <= 529.299520530559
 0 <= xp_98_0 <= 66.2538667453613
 0 <= xp_98_1 <= 55.2115556211344
 0 <= xp_98_2 <= 22.0846222484538
 0 <= xp_99_0 <= 8.85315008717915
 0 <= xp_99_1 <= 6.32367863369939
 0 <= xp_99_2 <= 1.26473572673988
 0 <= xp_100_0 <= 505.066371324631
 0 <= xp_101_0 <= 231.61425357164
 0 <= xp_101_1 <= 19.3011877976367
 0 <= xp_102_0 <= 75.2746324107831
 0 <= xp_103_0 <= 1445.8011853215
 0 <= xp_104_0 <= 132.456940891255
 0 <= xp_105_0 <= 1343.97218190912
 0 <= xp_105_1 <= 111.99768182576
 0 <= xp_106_0 <= 38.3992051974035
 0 <= xp_106_1 <= 3.19993376645029
 0 <= xp_107_0 <= 451.647794464699
 0 <= xp_108_0 <= 327.942418461688
 0 <= xp_108_1 <= 196.765451077013
 0 <= xp_108_2 <= 327.942418461688
 0 <= xp_109_0 <= 522.726958159469
 0 <= xp_109_1 <= 448.051678422402
 0 <= xp_110_0 <= 133.777548477409
 0 <= xp_111_0 <= 2485.40379418178
 0 <= xp_111_1 <= 451.891598942142
 0 <= xp_112_0 <= 3616.2807042851
 0 <= xp_112_1 <= 723.256140857021
 0 <= xp_112_2 <= 361.62807042851
 0 <= xp_113_0 <= 427.216554120848
 0 <= xp_114_0 <= 2407.99587259337
 0 <= xp_115_0 <= 136.530507368546
 0 <= xp_115_1 <= 85.3315671053412
 0 <= xp_116_0 <= 98.7001792851779
 0 <= xp_116_1 <= 61.6876120532362
 0 <= xp_117_0 <= 1951.52786043921
 0 <= xp_118_0 <= 3168.13759918366
 0 <= xp_119_0 <= 53.357625740572
 0 <= xp_119_1 <= 9.70138649828581
 0 <= xp_120_0 <= 1340.84335778193
 0 <= xp_120_1 <= 502.816259168223
 0 <= xp_120_2 <= 335.210839445482
 0 <= xp_121_0 <= 75.8689058245524
 0 <= xp_122_0 <= 2284.45303290865
 0 <= xp_123_0 <= 476.332997805886
 0 <= xp_123_1 <= 39.6944164838239
 0 <= xp_124_0 <= 127.631643941846
 0 <= xp_124_1 <= 10.6359703284872
 0 <= xp_125_0 <= 16.8631430231984
 0 <= xp_125_1 <= 10.539464389499
 0 <= xp_126_0 <= 1960.54862610463
 0 <= xp_126_1 <= 9802.74313052314
 0 <= xp_126_2 <= 7842.19450441851
 0 <= xp_126_3 <= 3921.09725220925
 0 <= xp_126_4 <= 1960.54862610463
 0 <= xp_127_0 <= 222.801737564035
 0 <= xp_127_1 <= 356.482780102456
 0 <= xp_128_0 <= 156.872943455266
 0 <= xp_128_1 <= 31.3745886910531
 0 <= xp_128_2 <= 219.622120837372
 0 <= xp_129_0 <= 34.0564379429353
 0 <= xp_129_1 <= 15.1361946413046
 0 <= xp_130_0 <= 405.360498569998
 0 <= xp_131_0 <= 296.552591990794
 0 <= xp_131_1 <= 355.863110388953
 0 <= xp_131_2 <= 118.621036796318

End
